55
RC face-on doublet | charge=0 mult=2 | P450 Cpd I + benzene | source: Lonsdale, Harvey, Mulholland, J. Chem. Theory Comput. 8, 4637 (2012), Supporting Information
C      -1.832183     -0.336264      2.841292
S      -1.322881      1.010362      1.636544
H      -2.873398     -0.121762      3.107518
H      -1.785411     -1.305087      2.334529
O       1.133187     -0.312719     -1.407335
Fe      0.111458      0.043587     -0.157017
N      -0.152836     -1.845558      0.484027
N      -1.559411     -0.124184     -1.270925
N       0.210340      2.021057     -0.550438
N       1.606865      0.257575      1.209518
C       0.664132     -2.553095      1.344456
C       0.211086     -3.913300      1.479646
C      -0.909814     -4.035439      0.707086
C      -1.125995     -2.749064      0.076855
C      -2.358702     -1.238035     -1.429465
C      -3.458621     -0.945206     -2.329792
C      -3.316561      0.358484     -2.725530
C      -2.138599      0.867642     -2.034989
C      -0.668947      2.733165     -1.338831
C      -0.288607      4.128470     -1.365681
C       0.877764      4.246870     -0.657759
C       1.167089      2.930878     -0.106596
C       2.351080      1.398402      1.448328
C       3.366756      1.130058      2.448252
C       3.240052     -0.186148      2.814147
C       2.158216     -0.725440      2.020858
C       1.743658     -2.040838      2.041201
H       2.300461     -2.732083      2.657817
C      -2.159070     -2.460376     -0.799921
H      -2.866440     -3.256506     -0.997302
C      -1.729598      2.194466     -2.060161
H      -2.276311      2.878650     -2.698909
C       2.143891      2.624755      0.830835
H       2.794985      3.418555      1.166932
C       3.307389     -3.870294     -0.157403
H       3.500144     -4.492899      0.710717
C       2.231273     -4.168275     -1.008410
H       1.588038     -5.009906     -0.786858
C       4.102438     -2.744965     -0.408042
H       4.893298     -2.476550      0.278607
C       1.956270     -3.337246     -2.106173
H       1.104841     -3.533998     -2.746193
C       3.847420     -1.931652     -1.518347
H       4.464173     -1.059293     -1.702783
C       2.775907     -2.229368     -2.368089
H       2.550530     -1.587456     -3.206748
H      -1.259502     -0.416226      3.773259
H       0.694029     -4.655218      2.100398
H      -1.527704     -4.914691      0.578515
H      -4.241562     -1.659062     -2.566300
H      -3.895300      0.994290     -3.398337
H      -0.854484      4.926364     -1.832318
H       1.427376      5.185577     -0.606468
H       4.117205      1.843351      2.776750
H       3.793815     -0.749760      3.568069
