55
RC face-on quartet | charge=0 mult=4 | P450 Cpd I + benzene | source: Lonsdale, Harvey, Mulholland, J. Chem. Theory Comput. 8, 4637 (2012), Supporting Information
C      -1.827023     -0.344614      2.833335
S      -1.319937      1.004688      1.630017
H      -2.870349     -0.135128      3.093572
H      -1.769330     -1.311243      2.327419
O       1.108336     -0.343908     -1.411897
Fe      0.112880      0.052841     -0.151293
N      -0.152587     -1.844869      0.488372
N      -1.556131     -0.121548     -1.271667
N       0.215111      2.019822     -0.552683
N       1.613305      0.259879      1.204096
C       0.667832     -2.554446      1.342722
C       0.214023     -3.913596      1.477699
C      -0.908356     -4.034349      0.706608
C      -1.124462     -2.747636      0.078545
C      -2.355409     -1.236336     -1.430560
C      -3.455435     -0.944198     -2.330511
C      -3.313178      0.359026     -2.727835
C      -2.135580      0.868357     -2.039372
C      -0.667394      2.733797     -1.338471
C      -0.291434      4.128702     -1.359742
C       0.874430      4.248032     -0.651061
C       1.167683      2.932091     -0.104240
C       2.353414      1.400898      1.446829
C       3.367623      1.131939      2.449436
C       3.240646     -0.184759      2.812492
C       2.162084     -0.724174      2.014393
C       1.752297     -2.040594      2.031360
H       2.321956     -2.732174      2.637909
C      -2.155605     -2.458161     -0.800747
H      -2.861403     -3.255430     -1.004927
C      -1.724517      2.194611     -2.063778
H      -2.265779      2.879469     -2.708695
C       2.144851      2.628323      0.832891
H       2.789761      3.423864      1.173458
C       3.309575     -3.874903     -0.158765
H       3.502047     -4.497969      0.710355
C       2.234820     -4.172601     -1.010448
H       1.591730     -5.016833     -0.789959
C       4.105582     -2.751059     -0.409991
H       4.897865     -2.482729      0.276328
C       1.961471     -3.343398     -2.108381
H       1.110162     -3.540707     -2.751035
C       3.853104     -1.939402     -1.522157
H       4.474094     -1.069947     -1.710310
C       2.781994     -2.237543     -2.371604
H       2.559571     -1.597831     -3.214530
H      -1.257871     -0.420240      3.769686
H       0.696101     -4.655367      2.098977
H      -1.528449     -4.913113      0.578884
H      -4.240839     -1.656731     -2.564036
H      -3.894077      0.993863     -3.399678
H      -0.857402      4.928287     -1.826305
H       1.425470      5.185635     -0.599715
H       4.116518      1.845383      2.778625
H       3.793079     -0.748086      3.566825
