55
RC side-on quartet | charge=0 mult=4 | P450 Cpd I + benzene | source: Lonsdale, Harvey, Mulholland, J. Chem. Theory Comput. 8, 4637 (2012), Supporting Information
C      -2.200106     -0.004573      3.742955
S      -1.552513      1.253787      2.491301
H      -3.257061      0.241273      3.907411
H      -2.131829     -1.002615      3.302308
O       1.041897     -0.107939     -0.517015
Fe     -0.003515      0.248031      0.709677
N      -0.305526     -1.672950      1.244196
N      -1.588449      0.124840     -0.515321
N       0.143114      2.213297      0.376393
N       1.430406      0.392120      2.131564
C       0.517277     -2.431078      2.058805
C       0.141627     -3.817635      2.006215
C      -0.936765     -3.912459      1.170513
C      -1.221557     -2.569964      0.702620
C      -2.417055     -0.959318     -0.721276
C      -3.409806     -0.646302     -1.732115
C      -3.142055      0.619895     -2.187036
C      -2.012369      1.096885     -1.398375
C      -0.508024      2.901190     -0.626367
C      -0.074099      4.279542     -0.642024
C       0.820444      4.440178      0.382226
C       0.999823      3.127789      0.980745
C       2.208360      1.502870      2.398854
C       3.257958      1.164640      3.336271
C       3.103317     -0.157244      3.657595
C       1.977324     -0.636072      2.886470
C       1.556563     -1.950102      2.839401
H       2.098011     -2.668476      3.444626
C      -2.260413     -2.217947     -0.150370
H      -2.976152     -2.991770     -0.416162
C      -1.471249      2.374340     -1.477637
H      -1.846308      3.040308     -2.245208
C       1.999411      2.767318      1.871651
H       2.736298      3.510506      2.145733
C       3.926726     -1.191143     -3.172860
H       4.179544     -0.920239     -4.193345
C       2.919192     -2.139418     -2.928106
H       2.407251     -2.603538     -3.764169
C       4.597152     -0.588231     -2.094053
H       5.370186      0.153048     -2.277249
C       2.583093     -2.482573     -1.611978
H       1.783829     -3.191038     -1.422329
C       4.248684     -0.928749     -0.778428
H       4.729337     -0.427346      0.053231
C       3.250477     -1.879802     -0.537449
H       2.961824     -2.118141      0.480666
H      -1.696125     -0.032160      4.723549
H       0.561533     -4.578906      2.638990
H      -1.450213     -4.822958      0.892317
H      -4.195935     -1.358520     -1.961578
H      -3.585725      1.259115     -2.957193
H      -0.430990      5.013527     -1.351808
H       1.247510      5.398922      0.670596
H       4.032511      1.849310      3.656693
H       3.659605     -0.761334      4.367411
