55
RC side-on doublet | charge=0 mult=2 | P450 Cpd I + benzene | source: Lonsdale, Harvey, Mulholland, J. Chem. Theory Comput. 8, 4637 (2012), Supporting Information
C      -2.191683     -0.007719      3.738605
S      -1.561514      1.256957      2.483599
H      -3.248093      0.230384      3.908490
H      -2.119129     -1.005399      3.295024
O       1.096178     -0.139692     -0.486069
Fe      0.010865      0.234506      0.698046
N      -0.308261     -1.671995      1.249416
N      -1.565715      0.116126     -0.539095
N       0.158896      2.204549      0.357667
N       1.425169      0.391785      2.139878
C       0.511592     -2.429985      2.068563
C       0.133496     -3.815907      2.015372
C      -0.945010     -3.908476      1.179682
C      -1.223258     -2.568566      0.707142
C      -2.403021     -0.962935     -0.735923
C      -3.405084     -0.646129     -1.735499
C      -3.137020      0.619798     -2.191141
C      -1.996305      1.090721     -1.415576
C      -0.495230      2.895481     -0.639960
C      -0.072960      4.277864     -0.646120
C       0.821549      4.437683      0.378118
C       1.008271      3.122307      0.968841
C       2.206565      1.502395      2.400921
C       3.256511      1.165852      3.339299
C       3.101426     -0.155462      3.662764
C       1.972922     -0.635321      2.896405
C       1.550515     -1.948591      2.850603
H       2.091115     -2.667590      3.455148
C      -2.255026     -2.216597     -0.154798
H      -2.978398     -2.986737     -0.412449
C      -1.460415      2.370697     -1.490318
H      -1.851461      3.044963     -2.243610
C       2.002086      2.764383      1.868404
H       2.735486      3.509118      2.146317
C       3.916625     -1.194220     -3.167727
H       4.170047     -0.922554     -4.187583
C       2.906032     -2.140751     -2.924793
H       2.402533     -2.611587     -3.761107
C       4.579853     -0.584924     -2.087084
H       5.356985      0.151302     -2.270423
C       2.551393     -2.465144     -1.608865
H       1.750135     -3.172045     -1.419937
C       4.210749     -0.905499     -0.772870
H       4.685020     -0.398088      0.060220
C       3.195703     -1.839878     -0.532892
H       2.888433     -2.058895      0.482146
H      -1.689180     -0.035097      4.720061
H       0.555567     -4.577896      2.644956
H      -1.464164     -4.816140      0.901346
H      -4.195900     -1.355805     -1.957131
H      -3.586407      1.260932     -2.956833
H      -0.435342      5.013676     -1.351207
H       1.245518      5.398257      0.668409
H       4.029358      1.852618      3.659208
H       3.659056     -0.760115      4.370003
