55
TS face-on quartet | charge=0 mult=4 | P450 Cpd I + benzene | source: Lonsdale, Harvey, Mulholland, J. Chem. Theory Comput. 8, 4637 (2012), Supporting Information
C      -1.818679     -0.334370      2.810933
S      -1.238707      0.958066      1.574962
H      -2.853535     -0.067534      3.053779
H      -1.806477     -1.314293      2.328011
O       1.175315     -0.536775     -1.443835
Fe      0.140069      0.006986     -0.177181
N      -0.159326     -1.877634      0.499893
N      -1.517971     -0.169548     -1.316054
N       0.277285      1.948912     -0.633609
N       1.670034      0.201728      1.150878
C       0.642070     -2.576349      1.379120
C       0.185822     -3.934079      1.509799
C      -0.921495     -4.061012      0.715657
C      -1.129082     -2.777293      0.080204
C      -2.327879     -1.284083     -1.462775
C      -3.423496     -0.990945     -2.369748
C      -3.285876      0.313415     -2.763967
C      -2.099255      0.820044     -2.086068
C      -0.605613      2.662740     -1.426928
C      -0.238493      4.058097     -1.438998
C       0.907087      4.192619     -0.700675
C       1.211237      2.877143     -0.153814
C       2.404316      1.342490      1.387662
C       3.405377      1.084328      2.406318
C       3.260549     -0.224541      2.795288
C       2.184216     -0.769193      1.998371
C       1.730956     -2.071152      2.067492
H       2.262762     -2.755731      2.711980
C      -2.151523     -2.495340     -0.811644
H      -2.871204     -3.284228     -0.997591
C      -1.676969      2.137937     -2.135766
H      -2.224454      2.826745     -2.768954
C       2.182213      2.578335      0.787448
H       2.811972      3.378561      1.144670
C       3.232088     -3.721168     -0.177525
H       3.532976     -4.440102      0.579960
C       2.097982     -3.973821     -0.980501
H       1.547164     -4.895106     -0.844937
C       3.953607     -2.523602     -0.350397
H       4.832105     -2.332292      0.249539
C       1.669207     -3.038022     -1.912230
H       0.797658     -3.224620     -2.528966
C       3.557150     -1.588159     -1.292454
H       4.150815     -0.697407     -1.452953
C       2.346586     -1.771212     -2.051195
H       2.284920     -1.284087     -3.017414
H      -1.257137     -0.414812      3.755943
H       0.677122     -4.674992      2.122065
H      -1.529442     -4.943990      0.558669
H      -4.193767     -1.713395     -2.624788
H      -3.876024      0.959115     -3.421018
H      -0.803703      4.855587     -1.915068
H       1.422475      5.153491     -0.632781
H       4.148706      1.806717      2.730976
H       3.801387     -0.780611      3.563402
