55
TS face-on doublet | charge=0 mult=2 | P450 Cpd I + benzene | source: Lonsdale, Harvey, Mulholland, J. Chem. Theory Comput. 8, 4637 (2012), Supporting Information
C      -1.815849     -0.325425      2.808345
S      -1.250835      0.972258      1.559214
H      -2.850714     -0.066856      3.058125
H      -1.801199     -1.306759      2.325204
O       1.199895     -0.322816     -1.529165
Fe      0.143169     -0.040913     -0.141835
N      -0.108377     -1.913167      0.457598
N      -1.523518     -0.199180     -1.299782
N       0.275466      1.942929     -0.623858
N       1.675254      0.155872      1.151683
C       0.657996     -2.607486      1.369833
C       0.186835     -3.959547      1.510136
C      -0.911827     -4.086776      0.705900
C      -1.104156     -2.811076      0.051734
C      -2.330467     -1.301919     -1.457441
C      -3.430271     -1.006160     -2.361433
C      -3.287676      0.298560     -2.752207
C      -2.099967      0.799353     -2.070192
C      -0.598262      2.647983     -1.415671
C      -0.234102      4.048070     -1.438759
C       0.909910      4.184586     -0.698616
C       1.209850      2.862638     -0.153430
C       2.400781      1.309257      1.385566
C       3.400984      1.061218      2.406550
C       3.264495     -0.247859      2.802401
C       2.195137     -0.802868      2.005057
C       1.741353     -2.105795      2.070162
H       2.250165     -2.787561      2.738919
C      -2.138312     -2.522991     -0.817605
H      -2.866169     -3.308462     -0.989388
C      -1.673309      2.113562     -2.119818
H      -2.220895      2.799952     -2.756561
C       2.179501      2.545813      0.787219
H       2.817545      3.340478      1.146423
C       3.169462     -3.648110     -0.187560
H       3.486523     -4.386834      0.541730
C       2.026153     -3.888906     -0.977976
H       1.462432     -4.801385     -0.832540
C       3.898138     -2.449896     -0.342801
H       4.774270     -2.267677      0.266253
C       1.570836     -2.923204     -1.865713
H       0.680538     -3.091322     -2.459657
C       3.491435     -1.500265     -1.259699
H       4.083367     -0.607551     -1.408347
C       2.277895     -1.671760     -2.027493
H       2.268204     -1.248479     -3.024927
H      -1.255088     -0.410560      3.754603
H       0.673577     -4.695660      2.129277
H      -1.529329     -4.964526      0.555205
H      -4.196248     -1.729482     -2.623519
H      -3.872692      0.946242     -3.412787
H      -0.798809      4.840057     -1.922537
H       1.423199      5.144680     -0.632069
H       4.143161      1.788530      2.724487
H       3.805889     -0.796327      3.573567
