55
TS side-on doublet | charge=0 mult=2 | P450 Cpd I + benzene | source: Lonsdale, Harvey, Mulholland, J. Chem. Theory Comput. 8, 4637 (2012), Supporting Information
C      -2.127468     -0.054214      3.699801
S      -1.519592      1.219471      2.434354
H      -3.194405      0.149861      3.844435
H      -2.013512     -1.052060      3.266651
O       1.177333     -0.079849     -0.588926
Fe      0.043695      0.216648      0.703899
N      -0.261859     -1.683048      1.234084
N      -1.519920      0.104602     -0.568981
N       0.203276      2.186434      0.319811
N       1.466490      0.358705      2.116602
C       0.514070     -2.440684      2.103485
C       0.102366     -3.816564      2.069552
C      -0.967305     -3.900164      1.221291
C      -1.201796     -2.567530      0.709543
C      -2.369818     -0.966777     -0.748828
C      -3.389145     -0.644907     -1.730726
C      -3.119219      0.616705     -2.195738
C      -1.959454      1.079775     -1.441403
C      -0.458984      2.879487     -0.669917
C      -0.053192      4.267757     -0.662377
C       0.843324      4.426721      0.359338
C       1.044667      3.103875      0.937319
C       2.233356      1.479735      2.381042
C       3.262009      1.159532      3.347021
C       3.102801     -0.157967      3.688750
C       1.987998     -0.651586      2.913981
C       1.540301     -1.960890      2.902250
H       2.050434     -2.673416      3.540565
C      -2.229057     -2.214768     -0.157285
H      -2.964624     -2.977300     -0.400183
C      -1.423505      2.358434     -1.520608
H      -1.814879      3.033509     -2.271831
C       2.029234      2.743446      1.845179
H       2.753641      3.491299      2.138625
C       3.779572     -1.221646     -3.022638
H       4.207692     -1.100235     -4.013449
C       2.694111     -2.100920     -2.837306
H       2.336975     -2.686573     -3.677803
C       4.318990     -0.511264     -1.927365
H       5.187968      0.125197     -2.072902
C       2.108896     -2.228851     -1.581225
H       1.276227     -2.906564     -1.420834
C       3.730060     -0.620148     -0.673058
H       4.126966     -0.068469      0.174161
C       2.546439     -1.404314     -0.497570
H       2.265923     -1.681642      0.505451
H      -1.649642     -0.063522      4.697681
H       0.522702     -4.580265      2.694501
H      -1.521018     -4.791624      0.957024
H      -4.192704     -1.348045     -1.925167
H      -3.579572      1.262784     -2.952407
H      -0.445188      5.004706     -1.350746
H       1.252894      5.391360      0.653532
H       4.021150      1.858969      3.672870
H       3.658522     -0.756103      4.400593
