55
TS side-on quartet | charge=0 mult=4 | P450 Cpd I + benzene | source: Lonsdale, Harvey, Mulholland, J. Chem. Theory Comput. 8, 4637 (2012), Supporting Information
C      -2.103667     -0.079558      3.686795
S      -1.437069      1.167040      2.428596
H      -3.169672      0.145545      3.810031
H      -1.995346     -1.082933      3.266341
O       1.181571     -0.243129     -0.526037
Fe      0.029682      0.248690      0.694891
N      -0.289847     -1.671451      1.257298
N      -1.502061      0.113691     -0.582841
N       0.211997      2.176791      0.309753
N       1.502728      0.369349      2.092398
C       0.508607     -2.425997      2.105092
C       0.102468     -3.804837      2.068927
C      -0.972872     -3.889463      1.226176
C      -1.217161     -2.555080      0.724647
C      -2.360362     -0.963654     -0.750547
C      -3.377636     -0.640165     -1.732500
C      -3.107915      0.619273     -2.202932
C      -1.945744      1.087253     -1.456255
C      -0.454957      2.875178     -0.680920
C      -0.048190      4.259670     -0.663874
C       0.848200      4.418257      0.359526
C       1.056966      3.100061      0.937110
C       2.259940      1.484986      2.366610
C       3.280719      1.162248      3.340953
C       3.117901     -0.156610      3.676802
C       2.008060     -0.646563      2.889685
C       1.549011     -1.950887      2.888489
H       2.057499     -2.663829      3.527180
C      -2.238991     -2.205283     -0.152057
H      -2.975480     -2.966901     -0.395695
C      -1.416112      2.365909     -1.538112
H      -1.807291      3.045080     -2.285750
C       2.044254      2.752730      1.842717
H       2.760689      3.505697      2.140777
C       3.795815     -1.221268     -3.019431
H       4.210715     -1.078582     -4.012782
C       2.724945     -2.130119     -2.832547
H       2.376252     -2.714005     -3.677845
C       4.320065     -0.498279     -1.920648
H       5.178137      0.152223     -2.067135
C       2.143861     -2.275222     -1.584459
H       1.331849     -2.977116     -1.422063
C       3.731429     -0.606916     -0.668427
H       4.126342     -0.057208      0.179526
C       2.543600     -1.417938     -0.483124
H       2.345237     -1.769610      0.519944
H      -1.638291     -0.078059      4.691512
H       0.523192     -4.571003      2.693100
H      -1.525424     -4.781734      0.961143
H      -4.183840     -1.343107     -1.921759
H      -3.571702      1.266026     -2.956962
H      -0.443719      4.998763     -1.348814
H       1.253934      5.386175      0.652319
H       4.034377      1.862268      3.675448
H       3.666349     -0.756777      4.394323
